NAME : expansion
TYPE : TSP
DIMENSION : 50
EDGE_WEIGHT_TYPE : EUC_2D
NODE_COORD_SECTION
1 305756 843060
2 657948 216511
3 109659 280715
4 13380 88246
5 888047 257569
6 776225 770747
7 815548 321639
8 670914 551932
9 584305 679956
10 689286 473582
11 660633 826251
12 782541 294504
13 974923 200972
14 704808 313601
15 966939 331206
16 251570 285595
17 779399 264568
18 671534 769988
19 736646 917619
20 770888 556761
21 754138 237677
22 743336 859195
23 911935 276444
24 729294 342846
25 990798 877477
26 274896 978414
27 848758 271951
28 790174 274529
29 550728 107895
30 10282 43339
31 801208 297799
32 683739 700944
33 647039 772526
34 900878 742366
35 813846 899285
36 940310 812420
37 913901 856427
38 843704 766793
39 98532 887287
40 904632 755082
41 790050 325340
42 951152 116652
43 945580 269911
44 920300 189373
45 740483 824337
46 653537 588018
47 758648 711211
48 563616 693753
49 559234 718169
50 893725 794169
EOF
